instances/911network.gr
p tw 69 163
1 2
2 3
2 4
2 6
3 4
3 7
4 5
4 8
4 9
4 10
5 7
5 8
5 9
5 10
5 11
5 12
6 12
6 13
6 14
6 15
6 16
6 17
7 9
7 18
8 9
9 16
9 18
9 19
9 20
9 21
9 22
9 23
9 24
9 25
9 17
10 17
10 26
11 14
12 14
12 13
12 15
12 27
12 28
12 29
12 30
12 31
12 17
12 25
12 26
12 32
12 20
12 18
12 16
13 16
13 14
13 15
13 27
14 16
14 17
14 15
14 27
15 17
15 16
16 17
16 18
16 20
17 27
17 33
17 30
17 34
17 29
17 28
17 35
17 36
17 31
17 37
17 38
17 25
17 32
17 26
17 18
18 26
18 20
18 23
18 21
18 39
18 40
18 41
20 26
20 23
20 21
21 23
22 23
23 24
23 25
23 42
23 43
24 37
25 44
25 32
25 26
25 30
25 29
25 31
25 37
25 45
26 30
26 31
26 32
27 35
28 31
28 46
28 36
28 47
28 48
29 30
29 31
30 31
31 36
31 37
37 45
37 49
37 50
38 46
38 51
38 49
38 52
38 53
38 54
38 55
38 56
38 57
38 58
38 59
39 40
40 41
45 50
45 60
45 61
45 62
45 63
45 64
45 65
49 51
49 59
49 53
49 50
50 65
50 66
52 54
52 60
53 55
53 54
62 64
63 64
63 65
63 66
64 65
65 66
65 67
65 68
65 69
69 35