instances/911network.td
s td 241 9 69
b 1 2
b 2 1
b 3 1 2
b 4 9
b 5 18
b 6 17
b 7 65
b 8 45
b 9 23
b 10 25
b 11 28
b 12 38
b 13 5 14
b 14 9 23
b 15 35 65
b 16 49 38
b 17 45 52
b 18 28 38
b 19 45 64
b 20 38 53
b 21 4 7 6
b 22 3 4 6
b 23 2
b 24 2 3
b 25 3 2 4
b 26 4 3 2 6
b 27 3
b 28 3 4
b 29 4 3 6
b 30 3 4 6 7
b 31 35 50 45
b 32 38 49 52
b 33 5 9 4
b 34 4
b 35 4 5
b 36 5 4 8
b 37 5 4 8 9
b 38 17 31 28
b 39 9 23 37
b 40 38 49 45
b 41 9 20 23 18
b 42 12 25 26 17
b 43 12 17 31 38
b 44 37 45 50 38
b 45 37 38 45 35
b 46 35 37 38 25
b 47 12 17 30 31 25
b 48 17 25 37 38 27
b 49 12 17 26 31 25
b 50 6 12 13 14 16 17
b 51 6
b 52 6 12
b 53 6 12 13
b 54 6 12 13 14
b 55 6 12 13 14 15
b 56 6 12 13 14 15 16
b 57 6 12 14 16 13 15 17
b 58 6 12 14 16 17 27
b 59 6 12 16 17 27 5
b 60 5
b 61 5 6
b 62 6 5 12
b 63 6 12 5 16
b 64 6 12 16 5 17
b 65 6 12 16 17 5 27
b 66 16 17 5 12 27 6 9
b 67 9 12 16 17 27 5 6 18
b 68 17 5 18 12 9 27 16 6 10
b 69 18 10 12 17 9 27 16 26
b 70 9 26 12 17 27 18 16 25
b 71 9 18 25 17 27 26 12 16 23
b 72 26 25 12 17 27 9 23 31
b 73 31 25 12 17 27 9 23 38
b 74 9 23 38 31 25 17 27 37
b 75 9 18 23 26 12 16 20
b 76 9 18 6 5 10 7
b 77 9 10 7 6 5 4
b 78 5
b 79 5 6
b 80 6 5 12
b 81 6 12 5 14
b 82 6 12 5 14 16
b 83 6 12 16 5 14 17
b 84 6 12 16 17 5 14 27
b 85 6
b 86 6 12
b 87 6 12 13
b 88 6 12 13 14
b 89 6 12 14 13 16
b 90 6 12 14 16 13 17
b 91 12 14 17 6 16 13 27
b 92 12
b 93 12 17
b 94 12 17 25
b 95 12 17 25 26
b 96 12 17 26 25 30
b 97 12 17 26 25 30 31
b 98 17
b 99 17 25
b 100 17 25 27
b 101 17 25 27 35
b 102 17 25 27 35 37
b 103 17 25 37 27 35 38
b 104 12
b 105 12 17
b 106 12 17 25
b 107 12 17 25 29
b 108 12 17 25 29 30
b 109 12 17 30 25 29 31
b 110 25
b 111 25 35
b 112 35 25 37
b 113 35 37 25 38
b 114 35 37 38 25 45
b 115 35
b 116 35 37
b 117 37 35 38
b 118 37 38 35 45
b 119 37 38 45 35 50
b 120 37
b 121 37 38
b 122 37 38 45
b 123 37 45 38 49
b 124 37 45 38 49 50
b 125 12
b 126 12 17
b 127 12 17 28
b 128 12 17 28 31
b 129 17 12 31 28 38
b 130 12
b 131 12 17
b 132 12 17 25
b 133 12 25 17 26
b 134 12 25 26 17 32
b 135 9
b 136 9 18
b 137 9 18 20
b 138 9 20 18 21
b 139 9 20 18 21 23
b 140 38
b 141 38 45
b 142 38 45 49
b 143 38 49 45 52
b 144 9
b 145 9 23
b 146 9 23 24
b 147 9 23 24 37
b 148 17
b 149 17 28
b 150 17 28 31
b 151 17 31 28 36
b 152 38 54 49
b 153 38
b 154 38 49
b 155 38 49 53
b 156 38 49 53 54
b 157 38
b 158 38 49
b 159 38 49 52
b 160 38 49 52 54
b 161 65 66 45
b 162 63 65 45
b 163 45
b 164 45 63
b 165 63 45 64
b 166 63 45 64 65
b 167 45
b 168 45 63
b 169 63 45 65
b 170 63 65 45 66
b 171 50 65 45
b 172 35
b 173 35 45
b 174 45 35 50
b 175 50 45 35 65
b 176 45
b 177 45 50
b 178 50 45 65
b 179 50 65 45 66
b 180 38
b 181 38 53
b 182 38 53 55
b 183 45
b 184 45 62
b 185 45 62 64
b 186 28
b 187 28 38
b 188 28 38 46
b 189 45
b 190 45 52
b 191 45 52 60
b 192 38
b 193 38 49
b 194 49 38 51
b 195 38
b 196 38 49
b 197 49 38 59
b 198 35
b 199 35 65
b 200 35 65 69
b 201 9
b 202 9 22
b 203 9 22 23
b 204 5
b 205 5 11
b 206 5 11 14
b 207 38
b 208 38 56
b 209 38
b 210 38 57
b 211 38
b 212 38 58
b 213 28
b 214 28 47
b 215 28
b 216 28 48
b 217 25
b 218 25 44
b 219 23
b 220 23 42
b 221 23
b 222 23 43
b 223 45
b 224 45 61
b 225 65
b 226 65 67
b 227 65
b 228 65 68
b 229 17
b 230 17 33
b 231 17
b 232 17 34
b 233 40 18
b 234 18
b 235 18 39
b 236 18 39 40
b 237 18
b 238 18 40
b 239 40 18 41
b 240 9
b 241 9 19
3 2
1 3
24 23
25 24
26 25
22 26
28 27
29 28
30 29
22 29
21 30
35 34
36 35
37 36
33 37
52 51
53 52
54 53
55 54
56 55
57 56
50 57
61 60
62 61
63 62
64 63
65 64
66 65
67 66
68 67
69 68
70 69
71 70
72 71
73 72
74 73
75 71
76 68
77 76
59 65
79 78
80 79
81 80
82 81
83 82
84 83
59 84
58 84
86 85
87 86
88 87
89 88
90 89
91 90
58 91
50 90
49 72
93 92
94 93
95 94
96 95
97 96
49 97
48 74
99 98
100 99
101 100
102 101
103 102
48 103
47 97
105 104
106 105
107 106
108 107
109 108
47 109
46 103
111 110
112 111
113 112
114 113
46 113
45 114
116 115
117 116
118 117
119 118
45 118
44 119
121 120
122 121
123 122
124 123
44 124
43 73
126 125
127 126
128 127
129 128
43 129
42 49
131 130
132 131
133 132
134 133
42 133
41 75
136 135
137 136
138 137
139 138
41 139
40 123
141 140
142 141
143 142
40 142
39 74
145 144
146 145
147 146
39 147
38 128
149 148
150 149
151 150
38 150
33 77
32 143
154 153
155 154
156 155
152 156
158 157
159 158
160 159
152 160
32 159
31 119
164 163
165 164
166 165
162 166
168 167
169 168
170 169
162 169
161 170
173 172
174 173
175 174
171 175
177 176
178 177
179 178
171 178
161 179
31 174
21 77
20 155
181 180
182 181
20 181
19 165
184 183
185 184
19 185
18 129
187 186
188 187
18 187
17 143
190 189
191 190
17 190
16 32
193 192
194 193
16 193
196 195
197 196
16 196
15 175
199 198
200 199
15 199
14 39
202 201
203 202
14 203
13 81
205 204
206 205
13 206
12 16
208 207
12 207
210 209
12 209
212 211
12 211
11 18
214 213
11 213
216 215
11 215
10 42
218 217
10 217
9 14
220 219
9 219
222 221
9 221
8 17
224 223
8 223
7 15
226 225
7 225
228 227
7 227
6 38
230 229
6 229
232 231
6 231
5 41
235 234
236 235
233 236
238 237
239 238
233 238
5 233
4 14
241 240
4 240
1 23